H64
1.0
32.000000 0.000000 0.000000
0.000000 32.000000 0.000000
0.000000 0.000000 1.000000
H
64
direct
0.000000 0.000000 0.000000 H
0.000000 0.125000 0.000000 H
0.000000 0.250000 0.000000 H
0.000000 0.375000 0.000000 H
0.000000 0.500000 0.000000 H
1.000000 0.625000 0.000000 H
0.000000 0.750000 0.000000 H
1.000000 0.875000 0.000000 H
0.125000 0.000000 0.000000 H
0.125000 0.125000 0.000000 H
0.125000 0.250000 0.000000 H
0.125000 0.375000 0.000000 H
0.125000 0.500000 0.000000 H
0.125000 0.625000 0.000000 H
0.125000 0.750000 0.000000 H
0.125000 0.875000 0.000000 H
0.250000 0.000000 0.000000 H
0.250000 0.125000 0.000000 H
0.250000 0.250000 0.000000 H
0.250000 0.375000 0.000000 H
0.250000 0.500000 0.000000 H
0.250000 0.625000 0.000000 H
0.250000 0.750000 0.000000 H
0.250000 0.875000 0.000000 H
0.375000 0.000000 0.000000 H
0.375000 0.125000 0.000000 H
0.375000 0.250000 1.000000 H
0.375000 0.375000 0.000000 H
0.375000 0.500000 0.000000 H
0.375000 0.625000 0.000000 H
0.375000 0.750000 0.000000 H
0.375000 0.875000 0.000000 H
0.500000 0.000000 0.000000 H
0.500000 0.125000 0.000000 H
0.500000 0.250000 0.000000 H
0.500000 0.375000 0.000000 H
0.500000 0.500000 0.000000 H
0.500000 0.625000 0.000000 H
0.500000 0.750000 0.000000 H
0.500000 0.875000 0.000000 H
0.625000 0.000000 0.000000 H
0.625000 0.125000 0.000000 H
0.625000 0.250000 0.000000 H
0.625000 0.375000 0.000000 H
0.625000 0.500000 0.000000 H
0.625000 0.625000 0.000000 H
0.625000 0.750000 0.000000 H
0.625000 0.875000 0.000000 H
0.750000 0.000000 0.000000 H
0.750000 0.125000 0.000000 H
0.750000 0.250000 0.000000 H
0.750000 0.375000 0.000000 H
0.750000 0.500000 1.000000 H
0.750000 0.625000 1.000000 H
0.750000 0.750000 0.000000 H
0.750000 0.875000 0.000000 H
0.875000 0.000000 0.000000 H
0.875000 0.125000 0.000000 H
0.875000 0.250000 0.000000 H
0.875000 0.375000 0.000000 H
0.875000 0.500000 0.000000 H
0.875000 0.625000 0.000000 H
0.875000 0.750000 0.000000 H
0.875000 0.875000 0.000000 H
