#Ba27 Zr27 O81 
1.0
38.12589064588608 0.0 0.0 
0.0 38.12589064588608 0.0 
0.0 0.0 38.12589064588608 
O Ba Zr H 
2187 729 729 8748 
Direct
0.0 0.02551297623333333 0.055555555566666665 
0.0 0.02551297623333333 0.38888888889999995 
0.0 0.02551297623333333 0.7222222222333333 
0.0 0.35884630956666663 0.055555555566666665 
0.0 0.35884630956666663 0.38888888889999995 
0.0 0.35884630956666663 0.7222222222333333 
0.0 0.6921796429 0.055555555566666665 
0.0 0.6921796429 0.38888888889999995 
0.0 0.6921796429 0.7222222222333333 
0.3333333333333333 0.02551297623333333 0.055555555566666665 
0.3333333333333333 0.02551297623333333 0.38888888889999995 
0.3333333333333333 0.02551297623333333 0.7222222222333333 
0.3333333333333333 0.35884630956666663 0.055555555566666665 
0.3333333333333333 0.35884630956666663 0.38888888889999995 
0.3333333333333333 0.35884630956666663 0.7222222222333333 
0.3333333333333333 0.6921796429 0.055555555566666665 
0.3333333333333333 0.6921796429 0.38888888889999995 
0.3333333333333333 0.6921796429 0.7222222222333333 
0.6666666666666666 0.02551297623333333 0.055555555566666665 
0.6666666666666666 0.02551297623333333 0.38888888889999995 
0.6666666666666666 0.02551297623333333 0.7222222222333333 
0.6666666666666666 0.35884630956666663 0.055555555566666665 
0.6666666666666666 0.35884630956666663 0.38888888889999995 
0.6666666666666666 0.35884630956666663 0.7222222222333333 
0.6666666666666666 0.6921796429 0.055555555566666665 
0.6666666666666666 0.6921796429 0.38888888889999995 
0.6666666666666666 0.6921796429 0.7222222222333333 
0.0 0.02551297623333333 0.16666666666666666 
0.0 0.02551297623333333 0.5 
0.0 0.02551297623333333 0.8333333333333333 
0.0 0.35884630956666663 0.16666666666666666 
0.0 0.35884630956666663 0.5 
0.0 0.35884630956666663 0.8333333333333333 
0.0 0.6921796429 0.16666666666666666 
0.0 0.6921796429 0.5 
0.0 0.6921796429 0.8333333333333333 
0.3333333333333333 0.02551297623333333 0.16666666666666666 
0.3333333333333333 0.02551297623333333 0.5 
0.3333333333333333 0.02551297623333333 0.8333333333333333 
0.3333333333333333 0.35884630956666663 0.16666666666666666 
0.3333333333333333 0.35884630956666663 0.5 
0.3333333333333333 0.35884630956666663 0.8333333333333333 
0.3333333333333333 0.6921796429 0.16666666666666666 
0.3333333333333333 0.6921796429 0.5 
0.3333333333333333 0.6921796429 0.8333333333333333 
0.6666666666666666 0.02551297623333333 0.16666666666666666 
0.6666666666666666 0.02551297623333333 0.5 
0.6666666666666666 0.02551297623333333 0.8333333333333333 
0.6666666666666666 0.35884630956666663 0.16666666666666666 
0.6666666666666666 0.35884630956666663 0.5 
0.6666666666666666 0.35884630956666663 0.8333333333333333 
0.6666666666666666 0.6921796429 0.16666666666666666 
0.6666666666666666 0.6921796429 0.5 
0.6666666666666666 0.6921796429 0.8333333333333333 
0.0 0.02551297623333333 0.2777777777666667 
0.0 0.02551297623333333 0.6111111111 
0.0 0.02551297623333333 0.9444444444333333 
0.0 0.35884630956666663 0.2777777777666667 
0.0 0.35884630956666663 0.6111111111 
0.0 0.35884630956666663 0.9444444444333333 
0.0 0.6921796429 0.2777777777666667 
0.0 0.6921796429 0.6111111111 
0.0 0.6921796429 0.9444444444333333 
0.3333333333333333 0.02551297623333333 0.2777777777666667 
0.3333333333333333 0.02551297623333333 0.6111111111 
0.3333333333333333 0.02551297623333333 0.9444444444333333 
0.3333333333333333 0.35884630956666663 0.2777777777666667 
0.3333333333333333 0.35884630956666663 0.6111111111 
0.3333333333333333 0.35884630956666663 0.9444444444333333 
0.3333333333333333 0.6921796429 0.2777777777666667 
0.3333333333333333 0.6921796429 0.6111111111 
0.3333333333333333 0.6921796429 0.9444444444333333 
0.6666666666666666 0.02551297623333333 0.2777777777666667 
0.6666666666666666 0.02551297623333333 0.6111111111 
0.6666666666666666 0.02551297623333333 0.9444444444333333 
0.6666666666666666 0.35884630956666663 0.2777777777666667 
0.6666666666666666 0.35884630956666663 0.6111111111 
0.6666666666666666 0.35884630956666663 0.9444444444333333 
0.6666666666666666 0.6921796429 0.2777777777666667 
0.6666666666666666 0.6921796429 0.6111111111 
0.6666666666666666 0.6921796429 0.9444444444333333 
0.0 0.055555555566666665 0.02551297623333333 
0.0 0.055555555566666665 0.35884630956666663 
0.0 0.055555555566666665 0.6921796429 
0.0 0.38888888889999995 0.02551297623333333 
0.0 0.38888888889999995 0.35884630956666663 
0.0 0.38888888889999995 0.6921796429 
0.0 0.7222222222333333 0.02551297623333333 
0.0 0.7222222222333333 0.35884630956666663 
0.0 0.7222222222333333 0.6921796429 
0.3333333333333333 0.055555555566666665 0.02551297623333333 
0.3333333333333333 0.055555555566666665 0.35884630956666663 
0.3333333333333333 0.055555555566666665 0.6921796429 
0.3333333333333333 0.38888888889999995 0.02551297623333333 
0.3333333333333333 0.38888888889999995 0.35884630956666663 
0.3333333333333333 0.38888888889999995 0.6921796429 
0.3333333333333333 0.7222222222333333 0.02551297623333333 
0.3333333333333333 0.7222222222333333 0.35884630956666663 
0.3333333333333333 0.7222222222333333 0.6921796429 
0.6666666666666666 0.055555555566666665 0.02551297623333333 
0.6666666666666666 0.055555555566666665 0.35884630956666663 
0.6666666666666666 0.055555555566666665 0.6921796429 
0.6666666666666666 0.38888888889999995 0.02551297623333333 
0.6666666666666666 0.38888888889999995 0.35884630956666663 
0.6666666666666666 0.38888888889999995 0.6921796429 
0.6666666666666666 0.7222222222333333 0.02551297623333333 
0.6666666666666666 0.7222222222333333 0.35884630956666663 
0.6666666666666666 0.7222222222333333 0.6921796429 
0.0 0.055555555566666665 0.0855981349 
0.0 0.055555555566666665 0.4189314682333333 
0.0 0.055555555566666665 0.7522648015666666 
0.0 0.38888888889999995 0.0855981349 
0.0 0.38888888889999995 0.4189314682333333 
0.0 0.38888888889999995 0.7522648015666666 
0.0 0.7222222222333333 0.0855981349 
0.0 0.7222222222333333 0.4189314682333333 
0.0 0.7222222222333333 0.7522648015666666 
0.3333333333333333 0.055555555566666665 0.0855981349 
0.3333333333333333 0.055555555566666665 0.4189314682333333 
0.3333333333333333 0.055555555566666665 0.7522648015666666 
0.3333333333333333 0.38888888889999995 0.0855981349 
0.3333333333333333 0.38888888889999995 0.4189314682333333 
0.3333333333333333 0.38888888889999995 0.7522648015666666 
0.3333333333333333 0.7222222222333333 0.0855981349 
0.3333333333333333 0.7222222222333333 0.4189314682333333 
0.3333333333333333 0.7222222222333333 0.7522648015666666 
0.6666666666666666 0.055555555566666665 0.0855981349 
0.6666666666666666 0.055555555566666665 0.4189314682333333 
0.6666666666666666 0.055555555566666665 0.7522648015666666 
0.6666666666666666 0.38888888889999995 0.0855981349 
0.6666666666666666 0.38888888889999995 0.4189314682333333 
0.6666666666666666 0.38888888889999995 0.7522648015666666 
0.6666666666666666 0.7222222222333333 0.0855981349 
0.6666666666666666 0.7222222222333333 0.4189314682333333 
0.6666666666666666 0.7222222222333333 0.7522648015666666 
0.0 0.055555555566666665 0.13662408733333334 
0.0 0.055555555566666665 0.4699574206666667 
0.0 0.055555555566666665 0.8032907539999999 
0.0 0.38888888889999995 0.13662408733333334 
0.0 0.38888888889999995 0.4699574206666667 
0.0 0.38888888889999995 0.8032907539999999 
0.0 0.7222222222333333 0.13662408733333334 
0.0 0.7222222222333333 0.4699574206666667 
0.0 0.7222222222333333 0.8032907539999999 
0.3333333333333333 0.055555555566666665 0.13662408733333334 
0.3333333333333333 0.055555555566666665 0.4699574206666667 
0.3333333333333333 0.055555555566666665 0.8032907539999999 
0.3333333333333333 0.38888888889999995 0.13662408733333334 
0.3333333333333333 0.38888888889999995 0.4699574206666667 
0.3333333333333333 0.38888888889999995 0.8032907539999999 
0.3333333333333333 0.7222222222333333 0.13662408733333334 
0.3333333333333333 0.7222222222333333 0.4699574206666667 
0.3333333333333333 0.7222222222333333 0.8032907539999999 
0.6666666666666666 0.055555555566666665 0.13662408733333334 
0.6666666666666666 0.055555555566666665 0.4699574206666667 
0.6666666666666666 0.055555555566666665 0.8032907539999999 
0.6666666666666666 0.38888888889999995 0.13662408733333334 
0.6666666666666666 0.38888888889999995 0.4699574206666667 
0.6666666666666666 0.38888888889999995 0.8032907539999999 
0.6666666666666666 0.7222222222333333 0.13662408733333334 
0.6666666666666666 0.7222222222333333 0.4699574206666667 
0.6666666666666666 0.7222222222333333 0.8032907539999999 
0.0 0.055555555566666665 0.19670924599999998 
0.0 0.055555555566666665 0.5300425793333333 
0.0 0.055555555566666665 0.8633759126666666 
0.0 0.38888888889999995 0.19670924599999998 
0.0 0.38888888889999995 0.5300425793333333 
0.0 0.38888888889999995 0.8633759126666666 
0.0 0.7222222222333333 0.19670924599999998 
0.0 0.7222222222333333 0.5300425793333333 
0.0 0.7222222222333333 0.8633759126666666 
0.3333333333333333 0.055555555566666665 0.19670924599999998 
0.3333333333333333 0.055555555566666665 0.5300425793333333 
0.3333333333333333 0.055555555566666665 0.8633759126666666 
0.3333333333333333 0.38888888889999995 0.19670924599999998 
0.3333333333333333 0.38888888889999995 0.5300425793333333 
0.3333333333333333 0.38888888889999995 0.8633759126666666 
0.3333333333333333 0.7222222222333333 0.19670924599999998 
0.3333333333333333 0.7222222222333333 0.5300425793333333 
0.3333333333333333 0.7222222222333333 0.8633759126666666 
0.6666666666666666 0.055555555566666665 0.19670924599999998 
0.6666666666666666 0.055555555566666665 0.5300425793333333 
0.6666666666666666 0.055555555566666665 0.8633759126666666 
0.6666666666666666 0.38888888889999995 0.19670924599999998 
0.6666666666666666 0.38888888889999995 0.5300425793333333 
0.6666666666666666 0.38888888889999995 0.8633759126666666 
0.6666666666666666 0.7222222222333333 0.19670924599999998 
0.6666666666666666 0.7222222222333333 0.5300425793333333 
0.6666666666666666 0.7222222222333333 0.8633759126666666 
0.0 0.055555555566666665 0.24773519846666667 
0.0 0.055555555566666665 0.5810685318 
0.0 0.055555555566666665 0.9144018651333333 
0.0 0.38888888889999995 0.24773519846666667 
0.0 0.38888888889999995 0.5810685318 
0.0 0.38888888889999995 0.9144018651333333 
0.0 0.7222222222333333 0.24773519846666667 
0.0 0.7222222222333333 0.5810685318 
0.0 0.7222222222333333 0.9144018651333333 
0.3333333333333333 0.055555555566666665 0.24773519846666667 
0.3333333333333333 0.055555555566666665 0.5810685318 
0.3333333333333333 0.055555555566666665 0.9144018651333333 
0.3333333333333333 0.38888888889999995 0.24773519846666667 
0.3333333333333333 0.38888888889999995 0.5810685318 
0.3333333333333333 0.38888888889999995 0.9144018651333333 
0.3333333333333333 0.7222222222333333 0.24773519846666667 
0.3333333333333333 0.7222222222333333 0.5810685318 
0.3333333333333333 0.7222222222333333 0.9144018651333333 
0.6666666666666666 0.055555555566666665 0.24773519846666667 
0.6666666666666666 0.055555555566666665 0.5810685318 
0.6666666666666666 0.055555555566666665 0.9144018651333333 
0.6666666666666666 0.38888888889999995 0.24773519846666667 
0.6666666666666666 0.38888888889999995 0.5810685318 
0.6666666666666666 0.38888888889999995 0.9144018651333333 
0.6666666666666666 0.7222222222333333 0.24773519846666667 
0.6666666666666666 0.7222222222333333 0.5810685318 
0.6666666666666666 0.7222222222333333 0.9144018651333333 
0.0 0.055555555566666665 0.3078203571 
0.0 0.055555555566666665 0.6411536904333333 
0.0 0.055555555566666665 0.9744870237666666 
0.0 0.38888888889999995 0.3078203571 
0.0 0.38888888889999995 0.6411536904333333 
0.0 0.38888888889999995 0.9744870237666666 
0.0 0.7222222222333333 0.3078203571 
0.0 0.7222222222333333 0.6411536904333333 
0.0 0.7222222222333333 0.9744870237666666 
0.3333333333333333 0.055555555566666665 0.3078203571 
0.3333333333333333 0.055555555566666665 0.6411536904333333 
0.3333333333333333 0.055555555566666665 0.9744870237666666 
0.3333333333333333 0.38888888889999995 0.3078203571 
0.3333333333333333 0.38888888889999995 0.6411536904333333 
0.3333333333333333 0.38888888889999995 0.9744870237666666 
0.3333333333333333 0.7222222222333333 0.3078203571 
0.3333333333333333 0.7222222222333333 0.6411536904333333 
0.3333333333333333 0.7222222222333333 0.9744870237666666 
0.6666666666666666 0.055555555566666665 0.3078203571 
0.6666666666666666 0.055555555566666665 0.6411536904333333 
0.6666666666666666 0.055555555566666665 0.9744870237666666 
0.6666666666666666 0.38888888889999995 0.3078203571 
0.6666666666666666 0.38888888889999995 0.6411536904333333 
0.6666666666666666 0.38888888889999995 0.9744870237666666 
0.6666666666666666 0.7222222222333333 0.3078203571 
0.6666666666666666 0.7222222222333333 0.6411536904333333 
0.6666666666666666 0.7222222222333333 0.9744870237666666 
0.0 0.0855981349 0.055555555566666665 
0.0 0.0855981349 0.38888888889999995 
0.0 0.0855981349 0.7222222222333333 
0.0 0.4189314682333333 0.055555555566666665 
0.0 0.4189314682333333 0.38888888889999995 
0.0 0.4189314682333333 0.7222222222333333 
0.0 0.7522648015666666 0.055555555566666665 
0.0 0.7522648015666666 0.38888888889999995 
0.0 0.7522648015666666 0.7222222222333333 
0.3333333333333333 0.0855981349 0.055555555566666665 
0.3333333333333333 0.0855981349 0.38888888889999995 
0.3333333333333333 0.0855981349 0.7222222222333333 
0.3333333333333333 0.4189314682333333 0.055555555566666665 
0.3333333333333333 0.4189314682333333 0.38888888889999995 
0.3333333333333333 0.4189314682333333 0.7222222222333333 
0.3333333333333333 0.7522648015666666 0.055555555566666665 
0.3333333333333333 0.7522648015666666 0.38888888889999995 
0.3333333333333333 0.7522648015666666 0.7222222222333333 
0.6666666666666666 0.0855981349 0.055555555566666665 
0.6666666666666666 0.0855981349 0.38888888889999995 
0.6666666666666666 0.0855981349 0.7222222222333333 
0.6666666666666666 0.4189314682333333 0.055555555566666665 
0.6666666666666666 0.4189314682333333 0.38888888889999995 
0.6666666666666666 0.4189314682333333 0.7222222222333333 
0.6666666666666666 0.7522648015666666 0.055555555566666665 
0.6666666666666666 0.7522648015666666 0.38888888889999995 
0.6666666666666666 0.7522648015666666 0.7222222222333333 
0.0 0.0855981349 0.16666666666666666 
0.0 0.0855981349 0.5 
0.0 0.0855981349 0.8333333333333333 
0.0 0.4189314682333333 0.16666666666666666 
0.0 0.4189314682333333 0.5 
0.0 0.4189314682333333 0.8333333333333333 
0.0 0.7522648015666666 0.16666666666666666 
0.0 0.7522648015666666 0.5 
0.0 0.7522648015666666 0.8333333333333333 
0.3333333333333333 0.0855981349 0.16666666666666666 
0.3333333333333333 0.0855981349 0.5 
0.3333333333333333 0.0855981349 0.8333333333333333 
0.3333333333333333 0.4189314682333333 0.16666666666666666 
0.3333333333333333 0.4189314682333333 0.5 
0.3333333333333333 0.4189314682333333 0.8333333333333333 
0.3333333333333333 0.7522648015666666 0.16666666666666666 
0.3333333333333333 0.7522648015666666 0.5 
0.3333333333333333 0.7522648015666666 0.8333333333333333 
0.6666666666666666 0.0855981349 0.16666666666666666 
0.6666666666666666 0.0855981349 0.5 
0.6666666666666666 0.0855981349 0.8333333333333333 
0.6666666666666666 0.4189314682333333 0.16666666666666666 
0.6666666666666666 0.4189314682333333 0.5 
0.6666666666666666 0.4189314682333333 0.8333333333333333 
0.6666666666666666 0.7522648015666666 0.16666666666666666 
0.6666666666666666 0.7522648015666666 0.5 
0.6666666666666666 0.7522648015666666 0.8333333333333333 
0.0 0.0855981349 0.2777777777666667 
0.0 0.0855981349 0.6111111111 
0.0 0.0855981349 0.9444444444333333 
0.0 0.4189314682333333 0.2777777777666667 
0.0 0.4189314682333333 0.6111111111 
0.0 0.4189314682333333 0.9444444444333333 
0.0 0.7522648015666666 0.2777777777666667 
0.0 0.7522648015666666 0.6111111111 
0.0 0.7522648015666666 0.9444444444333333 
0.3333333333333333 0.0855981349 0.2777777777666667 
0.3333333333333333 0.0855981349 0.6111111111 
0.3333333333333333 0.0855981349 0.9444444444333333 
0.3333333333333333 0.4189314682333333 0.2777777777666667 
0.3333333333333333 0.4189314682333333 0.6111111111 
0.3333333333333333 0.4189314682333333 0.9444444444333333 
0.3333333333333333 0.7522648015666666 0.2777777777666667 
0.3333333333333333 0.7522648015666666 0.6111111111 
0.3333333333333333 0.7522648015666666 0.9444444444333333 
0.6666666666666666 0.0855981349 0.2777777777666667 
0.6666666666666666 0.0855981349 0.6111111111 
0.6666666666666666 0.0855981349 0.9444444444333333 
0.6666666666666666 0.4189314682333333 0.2777777777666667 
0.6666666666666666 0.4189314682333333 0.6111111111 
0.6666666666666666 0.4189314682333333 0.9444444444333333 
0.6666666666666666 0.7522648015666666 0.2777777777666667 
0.6666666666666666 0.7522648015666666 0.6111111111 
0.6666666666666666 0.7522648015666666 0.9444444444333333 
0.0 0.13662408733333334 0.055555555566666665 
0.0 0.13662408733333334 0.38888888889999995 
0.0 0.13662408733333334 0.7222222222333333 
0.0 0.4699574206666667 0.055555555566666665 
0.0 0.4699574206666667 0.38888888889999995 
0.0 0.4699574206666667 0.7222222222333333 
0.0 0.8032907539999999 0.055555555566666665 
0.0 0.8032907539999999 0.38888888889999995 
0.0 0.8032907539999999 0.7222222222333333 
0.3333333333333333 0.13662408733333334 0.055555555566666665 
0.3333333333333333 0.13662408733333334 0.38888888889999995 
0.3333333333333333 0.13662408733333334 0.7222222222333333 
0.3333333333333333 0.4699574206666667 0.055555555566666665 
0.3333333333333333 0.4699574206666667 0.38888888889999995 
0.3333333333333333 0.4699574206666667 0.7222222222333333 
0.3333333333333333 0.8032907539999999 0.055555555566666665 
0.3333333333333333 0.8032907539999999 0.38888888889999995 
0.3333333333333333 0.8032907539999999 0.7222222222333333 
0.6666666666666666 0.13662408733333334 0.055555555566666665 
0.6666666666666666 0.13662408733333334 0.38888888889999995 
0.6666666666666666 0.13662408733333334 0.7222222222333333 
0.6666666666666666 0.4699574206666667 0.055555555566666665 
0.6666666666666666 0.4699574206666667 0.38888888889999995 
0.6666666666666666 0.4699574206666667 0.7222222222333333 
0.6666666666666666 0.8032907539999999 0.055555555566666665 
0.6666666666666666 0.8032907539999999 0.38888888889999995 
0.6666666666666666 0.8032907539999999 0.7222222222333333 
0.0 0.13662408733333334 0.16666666666666666 
0.0 0.13662408733333334 0.5 
0.0 0.13662408733333334 0.8333333333333333 
0.0 0.4699574206666667 0.16666666666666666 
0.0 0.4699574206666667 0.5 
0.0 0.4699574206666667 0.8333333333333333 
0.0 0.8032907539999999 0.16666666666666666 
0.0 0.8032907539999999 0.5 
0.0 0.8032907539999999 0.8333333333333333 
0.3333333333333333 0.13662408733333334 0.16666666666666666 
0.3333333333333333 0.13662408733333334 0.5 
0.3333333333333333 0.13662408733333334 0.8333333333333333 
0.3333333333333333 0.4699574206666667 0.16666666666666666 
0.3333333333333333 0.4699574206666667 0.5 
0.3333333333333333 0.4699574206666667 0.8333333333333333 
0.3333333333333333 0.8032907539999999 0.16666666666666666 
0.3333333333333333 0.8032907539999999 0.5 
0.3333333333333333 0.8032907539999999 0.8333333333333333 
0.6666666666666666 0.13662408733333334 0.16666666666666666 
0.6666666666666666 0.13662408733333334 0.5 
0.6666666666666666 0.13662408733333334 0.8333333333333333 
0.6666666666666666 0.4699574206666667 0.16666666666666666 
0.6666666666666666 0.4699574206666667 0.5 
0.6666666666666666 0.4699574206666667 0.8333333333333333 
0.6666666666666666 0.8032907539999999 0.16666666666666666 
0.6666666666666666 0.8032907539999999 0.5 
0.6666666666666666 0.8032907539999999 0.8333333333333333 
0.0 0.13662408733333334 0.2777777777666667 
0.0 0.13662408733333334 0.6111111111 
0.0 0.13662408733333334 0.9444444444333333 
0.0 0.4699574206666667 0.2777777777666667 
0.0 0.4699574206666667 0.6111111111 
0.0 0.4699574206666667 0.9444444444333333 
0.0 0.8032907539999999 0.2777777777666667 
0.0 0.8032907539999999 0.6111111111 
0.0 0.8032907539999999 0.9444444444333333 
0.3333333333333333 0.13662408733333334 0.2777777777666667 
0.3333333333333333 0.13662408733333334 0.6111111111 
0.3333333333333333 0.13662408733333334 0.9444444444333333 
0.3333333333333333 0.4699574206666667 0.2777777777666667 
0.3333333333333333 0.4699574206666667 0.6111111111 
0.3333333333333333 0.4699574206666667 0.9444444444333333 
0.3333333333333333 0.8032907539999999 0.2777777777666667 
0.3333333333333333 0.8032907539999999 0.6111111111 
0.3333333333333333 0.8032907539999999 0.9444444444333333 
0.6666666666666666 0.13662408733333334 0.2777777777666667 
0.6666666666666666 0.13662408733333334 0.6111111111 
0.6666666666666666 0.13662408733333334 0.9444444444333333 
0.6666666666666666 0.4699574206666667 0.2777777777666667 
0.6666666666666666 0.4699574206666667 0.6111111111 
0.6666666666666666 0.4699574206666667 0.9444444444333333 
0.6666666666666666 0.8032907539999999 0.2777777777666667 
0.6666666666666666 0.8032907539999999 0.6111111111 
0.6666666666666666 0.8032907539999999 0.9444444444333333 
0.0 0.16666666666666666 0.02551297623333333 
0.0 0.16666666666666666 0.35884630956666663 
0.0 0.16666666666666666 0.6921796429 
0.0 0.5 0.02551297623333333 
0.0 0.5 0.35884630956666663 
0.0 0.5 0.6921796429 
0.0 0.8333333333333333 0.02551297623333333 
0.0 0.8333333333333333 0.35884630956666663 
0.0 0.8333333333333333 0.6921796429 
0.3333333333333333 0.16666666666666666 0.02551297623333333 
0.3333333333333333 0.16666666666666666 0.35884630956666663 
0.3333333333333333 0.16666666666666666 0.6921796429 
0.3333333333333333 0.5 0.02551297623333333 
0.3333333333333333 0.5 0.35884630956666663 
0.3333333333333333 0.5 0.6921796429 
0.3333333333333333 0.8333333333333333 0.02551297623333333 
0.3333333333333333 0.8333333333333333 0.35884630956666663 
0.3333333333333333 0.8333333333333333 0.6921796429 
0.6666666666666666 0.16666666666666666 0.02551297623333333 
0.6666666666666666 0.16666666666666666 0.35884630956666663 
0.6666666666666666 0.16666666666666666 0.6921796429 
0.6666666666666666 0.5 0.02551297623333333 
0.6666666666666666 0.5 0.35884630956666663 
0.6666666666666666 0.5 0.6921796429 
0.6666666666666666 0.8333333333333333 0.02551297623333333 
0.6666666666666666 0.8333333333333333 0.35884630956666663 
0.6666666666666666 0.8333333333333333 0.6921796429 
0.0 0.16666666666666666 0.0855981349 
0.0 0.16666666666666666 0.4189314682333333 
0.0 0.16666666666666666 0.7522648015666666 
0.0 0.5 0.0855981349 
0.0 0.5 0.4189314682333333 
0.0 0.5 0.7522648015666666 
0.0 0.8333333333333333 0.0855981349 
0.0 0.8333333333333333 0.4189314682333333 
0.0 0.8333333333333333 0.7522648015666666 
0.3333333333333333 0.16666666666666666 0.0855981349 
0.3333333333333333 0.16666666666666666 0.4189314682333333 
0.3333333333333333 0.16666666666666666 0.7522648015666666 
0.3333333333333333 0.5 0.0855981349 
0.3333333333333333 0.5 0.4189314682333333 
0.3333333333333333 0.5 0.7522648015666666 
0.3333333333333333 0.8333333333333333 0.0855981349 
0.3333333333333333 0.8333333333333333 0.4189314682333333 
0.3333333333333333 0.8333333333333333 0.7522648015666666 
0.6666666666666666 0.16666666666666666 0.0855981349 
0.6666666666666666 0.16666666666666666 0.4189314682333333 
0.6666666666666666 0.16666666666666666 0.7522648015666666 
0.6666666666666666 0.5 0.0855981349 
0.6666666666666666 0.5 0.4189314682333333 
0.6666666666666666 0.5 0.7522648015666666 
0.6666666666666666 0.8333333333333333 0.0855981349 
0.6666666666666666 0.8333333333333333 0.4189314682333333 
0.6666666666666666 0.8333333333333333 0.7522648015666666 
0.0 0.16666666666666666 0.13662408733333334 
0.0 0.16666666666666666 0.4699574206666667 
0.0 0.16666666666666666 0.8032907539999999 
0.0 0.5 0.13662408733333334 
0.0 0.5 0.4699574206666667 
0.0 0.5 0.8032907539999999 
0.0 0.8333333333333333 0.13662408733333334 
0.0 0.8333333333333333 0.4699574206666667 
0.0 0.8333333333333333 0.8032907539999999 
0.3333333333333333 0.16666666666666666 0.13662408733333334 
0.3333333333333333 0.16666666666666666 0.4699574206666667 
0.3333333333333333 0.16666666666666666 0.8032907539999999 
0.3333333333333333 0.5 0.13662408733333334 
0.3333333333333333 0.5 0.4699574206666667 
0.3333333333333333 0.5 0.8032907539999999 
0.3333333333333333 0.8333333333333333 0.13662408733333334 
0.3333333333333333 0.8333333333333333 0.4699574206666667 
0.3333333333333333 0.8333333333333333 0.8032907539999999 
0.6666666666666666 0.16666666666666666 0.13662408733333334 
0.6666666666666666 0.16666666666666666 0.4699574206666667 
0.6666666666666666 0.16666666666666666 0.8032907539999999 
0.6666666666666666 0.5 0.13662408733333334 
0.6666666666666666 0.5 0.4699574206666667 
0.6666666666666666 0.5 0.8032907539999999 
0.6666666666666666 0.8333333333333333 0.13662408733333334 
0.6666666666666666 0.8333333333333333 0.4699574206666667 
0.6666666666666666 0.8333333333333333 0.8032907539999999 
0.0 0.16666666666666666 0.19670924599999998 
0.0 0.16666666666666666 0.5300425793333333 
0.0 0.16666666666666666 0.8633759126666666 
0.0 0.5 0.19670924599999998 
0.0 0.5 0.5300425793333333 
0.0 0.5 0.8633759126666666 
0.0 0.8333333333333333 0.19670924599999998 
0.0 0.8333333333333333 0.5300425793333333 
0.0 0.8333333333333333 0.8633759126666666 
0.3333333333333333 0.16666666666666666 0.19670924599999998 
0.3333333333333333 0.16666666666666666 0.5300425793333333 
0.3333333333333333 0.16666666666666666 0.8633759126666666 
0.3333333333333333 0.5 0.19670924599999998 
0.3333333333333333 0.5 0.5300425793333333 
0.3333333333333333 0.5 0.8633759126666666 
0.3333333333333333 0.8333333333333333 0.19670924599999998 
0.3333333333333333 0.8333333333333333 0.5300425793333333 
0.3333333333333333 0.8333333333333333 0.8633759126666666 
0.6666666666666666 0.16666666666666666 0.19670924599999998 
0.6666666666666666 0.16666666666666666 0.5300425793333333 
0.6666666666666666 0.16666666666666666 0.8633759126666666 
0.6666666666666666 0.5 0.19670924599999998 
0.6666666666666666 0.5 0.5300425793333333 
0.6666666666666666 0.5 0.8633759126666666 
0.6666666666666666 0.8333333333333333 0.19670924599999998 
0.6666666666666666 0.8333333333333333 0.5300425793333333 
0.6666666666666666 0.8333333333333333 0.8633759126666666 
0.0 0.16666666666666666 0.24773519846666667 
0.0 0.16666666666666666 0.5810685318 
0.0 0.16666666666666666 0.9144018651333333 
0.0 0.5 0.24773519846666667 
0.0 0.5 0.5810685318 
0.0 0.5 0.9144018651333333 
0.0 0.8333333333333333 0.24773519846666667 
0.0 0.8333333333333333 0.5810685318 
0.0 0.8333333333333333 0.9144018651333333 
0.3333333333333333 0.16666666666666666 0.24773519846666667 
0.3333333333333333 0.16666666666666666 0.5810685318 
0.3333333333333333 0.16666666666666666 0.9144018651333333 
0.3333333333333333 0.5 0.24773519846666667 
0.3333333333333333 0.5 0.5810685318 
0.3333333333333333 0.5 0.9144018651333333 
0.3333333333333333 0.8333333333333333 0.24773519846666667 
0.3333333333333333 0.8333333333333333 0.5810685318 
0.3333333333333333 0.8333333333333333 0.9144018651333333 
0.6666666666666666 0.16666666666666666 0.24773519846666667 
0.6666666666666666 0.16666666666666666 0.5810685318 
0.6666666666666666 0.16666666666666666 0.9144018651333333 
0.6666666666666666 0.5 0.24773519846666667 
0.6666666666666666 0.5 0.5810685318 
0.6666666666666666 0.5 0.9144018651333333 
0.6666666666666666 0.8333333333333333 0.24773519846666667 
0.6666666666666666 0.8333333333333333 0.5810685318 
0.6666666666666666 0.8333333333333333 0.9144018651333333 
0.0 0.16666666666666666 0.3078203571 
0.0 0.16666666666666666 0.6411536904333333 
0.0 0.16666666666666666 0.9744870237666666 
0.0 0.5 0.3078203571 
0.0 0.5 0.6411536904333333 
0.0 0.5 0.9744870237666666 
0.0 0.8333333333333333 0.3078203571 
0.0 0.8333333333333333 0.6411536904333333 
0.0 0.8333333333333333 0.9744870237666666 
0.3333333333333333 0.16666666666666666 0.3078203571 
0.3333333333333333 0.16666666666666666 0.6411536904333333 
0.3333333333333333 0.16666666666666666 0.9744870237666666 
0.3333333333333333 0.5 0.3078203571 
0.3333333333333333 0.5 0.6411536904333333 
0.3333333333333333 0.5 0.9744870237666666 
0.3333333333333333 0.8333333333333333 0.3078203571 
0.3333333333333333 0.8333333333333333 0.6411536904333333 
0.3333333333333333 0.8333333333333333 0.9744870237666666 
0.6666666666666666 0.16666666666666666 0.3078203571 
0.6666666666666666 0.16666666666666666 0.6411536904333333 
0.6666666666666666 0.16666666666666666 0.9744870237666666 
0.6666666666666666 0.5 0.3078203571 
0.6666666666666666 0.5 0.6411536904333333 
0.6666666666666666 0.5 0.9744870237666666 
0.6666666666666666 0.8333333333333333 0.3078203571 
0.6666666666666666 0.8333333333333333 0.6411536904333333 
0.6666666666666666 0.8333333333333333 0.9744870237666666 
0.0 0.19670924599999998 0.055555555566666665 
0.0 0.19670924599999998 0.38888888889999995 
0.0 0.19670924599999998 0.7222222222333333 
0.0 0.5300425793333333 0.055555555566666665 
0.0 0.5300425793333333 0.38888888889999995 
0.0 0.5300425793333333 0.7222222222333333 
0.0 0.8633759126666666 0.055555555566666665 
0.0 0.8633759126666666 0.38888888889999995 
0.0 0.8633759126666666 0.7222222222333333 
0.3333333333333333 0.19670924599999998 0.055555555566666665 
0.3333333333333333 0.19670924599999998 0.38888888889999995 
0.3333333333333333 0.19670924599999998 0.7222222222333333 
0.3333333333333333 0.5300425793333333 0.055555555566666665 
0.3333333333333333 0.5300425793333333 0.38888888889999995 
0.3333333333333333 0.5300425793333333 0.7222222222333333 
0.3333333333333333 0.8633759126666666 0.055555555566666665 
0.3333333333333333 0.8633759126666666 0.38888888889999995 
0.3333333333333333 0.8633759126666666 0.7222222222333333 
0.6666666666666666 0.19670924599999998 0.055555555566666665 
0.6666666666666666 0.19670924599999998 0.38888888889999995 
0.6666666666666666 0.19670924599999998 0.7222222222333333 
0.6666666666666666 0.5300425793333333 0.055555555566666665 
0.6666666666666666 0.5300425793333333 0.38888888889999995 
0.6666666666666666 0.5300425793333333 0.7222222222333333 
0.6666666666666666 0.8633759126666666 0.055555555566666665 
0.6666666666666666 0.8633759126666666 0.38888888889999995 