# simple cubic 1x1x1.-8x8x1	4x4x4
   1.0
   32.00000000000000      0.00000000000000      0.00000000000000	
    0.00000000000000     32.00000000000000      0.00000000000000	
    0.00000000000000      0.00000000000000     32.00000000000000	
 64
 Direct
    0.00000000000000      0.00000000000000      0.00000000000000
    0.12500000000000      0.00000000000000      0.00000000000000
    0.25000000000000      0.00000000000000      0.00000000000000
    0.37500000000000      0.00000000000000      0.00000000000000
    0.50000000000000      0.00000000000000      0.00000000000000
    0.62500000000000      0.00000000000000      0.00000000000000
    0.75000000000000      0.00000000000000      0.00000000000000
    0.87500000000000      0.00000000000000      0.00000000000000
    0.00000000000000      0.12500000000000      0.00000000000000
    0.12500000000000      0.12500000000000      0.00000000000000
    0.25000000000000      0.12500000000000      0.00000000000000
    0.37500000000000      0.12500000000000      0.00000000000000
    0.50000000000000      0.12500000000000      0.00000000000000
    0.62500000000000      0.12500000000000      0.00000000000000
    0.75000000000000      0.12500000000000      0.00000000000000
    0.87500000000000      0.12500000000000      0.00000000000000
    0.00000000000000      0.25000000000000      0.00000000000000
    0.12500000000000      0.25000000000000      0.00000000000000
    0.25000000000000      0.25000000000000      0.00000000000000
    0.37500000000000      0.25000000000000      0.00000000000000
    0.50000000000000      0.25000000000000      0.00000000000000
    0.62500000000000      0.25000000000000      0.00000000000000
    0.75000000000000      0.25000000000000      0.00000000000000
    0.87500000000000      0.25000000000000      0.00000000000000
    0.00000000000000      0.37500000000000      0.00000000000000
    0.12500000000000      0.37500000000000      0.00000000000000
    0.25000000000000      0.37500000000000      0.00000000000000
    0.37500000000000      0.37500000000000      0.00000000000000
    0.50000000000000      0.37500000000000      0.00000000000000
    0.62500000000000      0.37500000000000      0.00000000000000
    0.75000000000000      0.37500000000000      0.00000000000000
    0.87500000000000      0.37500000000000      0.00000000000000
    0.00000000000000      0.50000000000000      0.00000000000000
    0.12500000000000      0.50000000000000      0.00000000000000
    0.25000000000000      0.50000000000000      0.00000000000000
    0.37500000000000      0.50000000000000      0.00000000000000
    0.50000000000000      0.50000000000000      0.00000000000000
    0.62500000000000      0.50000000000000      0.00000000000000
    0.75000000000000      0.50000000000000      0.00000000000000
    0.87500000000000      0.50000000000000      0.00000000000000
    0.00000000000000      0.62500000000000      0.00000000000000
    0.12500000000000      0.62500000000000      0.00000000000000
    0.25000000000000      0.62500000000000      0.00000000000000
    0.37500000000000      0.62500000000000      0.00000000000000
    0.50000000000000      0.62500000000000      0.00000000000000
    0.62500000000000      0.62500000000000      0.00000000000000
    0.75000000000000      0.62500000000000      0.00000000000000
    0.87500000000000      0.62500000000000      0.00000000000000
    0.00000000000000      0.75000000000000      0.00000000000000
    0.12500000000000      0.75000000000000      0.00000000000000
    0.25000000000000      0.75000000000000      0.00000000000000
    0.37500000000000      0.75000000000000      0.00000000000000
    0.50000000000000      0.75000000000000      0.00000000000000
    0.62500000000000      0.75000000000000      0.00000000000000
    0.75000000000000      0.75000000000000      0.00000000000000
    0.87500000000000      0.75000000000000      0.00000000000000
    0.00000000000000      0.87500000000000      0.00000000000000
    0.12500000000000      0.87500000000000      0.00000000000000
    0.25000000000000      0.87500000000000      0.00000000000000
    0.37500000000000      0.87500000000000      0.00000000000000
    0.50000000000000      0.87500000000000      0.00000000000000
    0.62500000000000      0.87500000000000      0.00000000000000
    0.75000000000000      0.87500000000000      0.00000000000000
    0.87500000000000      0.87500000000000      0.00000000000000
